BAYES
436
2 2 2 2 2 2 2 2 3 2 2 2 2 2 2 2 2 2 2 2 2 2 2 2 3 2 2 2 2 2 2 2 2 2 2 2 2 2 2 2 3 2 2 2 2 2 2 2 2 2 2 2 2 2 2 2 3 2 2 2 2 2 2 2 2 2 2 2 2 2 2 2 3 2 2 2 2 2 2 2 2 2 2 2 2 2 2 2 3 2 2 2 2 2 2 2 2 2 2 2 2 2 2 2 3 2 2 2 2 2 2 2 2 2 2 2 2 2 2 2 3 2 2 2 2 2 2 2 2 2 2 2 2 2 2 2 3 2 2 2 2 2 2 2 2 2 2 2 2 2 2 2 3 2 2 2 2 2 2 2 2 2 2 2 2 2 2 2 3 2 2 2 2 2 2 2 2 2 2 2 2 2 2 2 3 2 2 2 2 2 2 2 2 2 2 2 2 2 2 2 3 2 2 2 2 2 2 2 2 2 2 2 2 2 2 2 3 2 2 2 2 2 2 2 2 2 2 2 2 2 2 2 3 2 2 2 2 2 2 2 2 2 2 2 2 2 2 2 3 2 2 2 2 2 2 2 2 2 2 2 2 2 2 2 3 2 2 2 2 2 2 2 2 2 2 2 2 2 2 2 3 2 2 2 2 2 2 2 2 2 2 2 2 2 2 2 3 2 2 2 2 2 2 2 2 2 2 2 2 2 2 2 3 2 2 2 2 2 2 2 2 2 2 2 2 2 2 2 3 2 2 2 2 2 2 2 2 2 2 2 2 2 2 2 3 2 2 2 2 2 2 2 2 2 2 2 2 2 2 2 3 2 2 2 2 2 2 2 2 2 2 2 2 2 2 2 3 2 2 2 2 2 2 2 2 2 2 2 2 2 2 2 3 2 2 2 2 2 2 2 2 2 2 2 2 2 2 2 3 2 2 2 2 2 2 2 2 2 2 2 2 2 2 2 3 2 2 2 2 2 2 2 2 2 2 2 
436
1	0
1	1
1	2
1	3
1	4
1	5
1	6
2	0	7
2	2	8
2	1	9
2	7	10
2	8	11
2	9	12
2	9	13
3	0	1	14
3	2	14	15
3	10	3	16
3	11	4	17
3	12	5	18
3	13	6	19
1	20
1	21
1	22
2	20	23
2	22	24
2	21	25
2	23	26
2	24	27
2	25	28
2	25	29
3	20	21	30
3	22	30	31
3	26	16	32
3	27	17	33
3	28	18	34
3	29	19	35
1	36
1	37
1	38
2	36	39
2	38	40
2	37	41
2	39	42
2	40	43
2	41	44
2	41	45
3	36	37	46
3	38	46	47
3	42	32	48
3	43	33	49
3	44	34	50
3	45	35	51
1	52
1	53
1	54
2	52	55
2	54	56
2	53	57
2	55	58
2	56	59
2	57	60
2	57	61
3	52	53	62
3	54	62	63
3	58	48	64
3	59	49	65
3	60	50	66
3	61	51	67
1	68
1	69
1	70
2	68	71
2	70	72
2	69	73
2	71	74
2	72	75
2	73	76
2	73	77
3	68	69	78
3	70	78	79
3	74	64	80
3	75	65	81
3	76	66	82
3	77	67	83
1	84
1	85
1	86
2	84	87
2	86	88
2	85	89
2	87	90
2	88	91
2	89	92
2	89	93
3	84	85	94
3	86	94	95
3	90	80	96
3	91	81	97
3	92	82	98
3	93	83	99
1	100
1	101
1	102
2	100	103
2	102	104
2	101	105
2	103	106
2	104	107
2	105	108
2	105	109
3	100	101	110
3	102	110	111
3	106	96	112
3	107	97	113
3	108	98	114
3	109	99	115
1	116
1	117
1	118
2	116	119
2	118	120
2	117	121
2	119	122
2	120	123
2	121	124
2	121	125
3	116	117	126
3	118	126	127
3	122	112	128
3	123	113	129
3	124	114	130
3	125	115	131
1	132
1	133
1	134
2	132	135
2	134	136
2	133	137
2	135	138
2	136	139
2	137	140
2	137	141
3	132	133	142
3	134	142	143
3	138	128	144
3	139	129	145
3	140	130	146
3	141	131	147
1	148
1	149
1	150
2	148	151
2	150	152
2	149	153
2	151	154
2	152	155
2	153	156
2	153	157
3	148	149	158
3	150	158	159
3	154	144	160
3	155	145	161
3	156	146	162
3	157	147	163
1	164
1	165
1	166
2	164	167
2	166	168
2	165	169
2	167	170
2	168	171
2	169	172
2	169	173
3	164	165	174
3	166	174	175
3	170	160	176
3	171	161	177
3	172	162	178
3	173	163	179
1	180
1	181
1	182
2	180	183
2	182	184
2	181	185
2	183	186
2	184	187
2	185	188
2	185	189
3	180	181	190
3	182	190	191
3	186	176	192
3	187	177	193
3	188	178	194
3	189	179	195
1	196
1	197
1	198
2	196	199
2	198	200
2	197	201
2	199	202
2	200	203
2	201	204
2	201	205
3	196	197	206
3	198	206	207
3	202	192	208
3	203	193	209
3	204	194	210
3	205	195	211
1	212
1	213
1	214
2	212	215
2	214	216
2	213	217
2	215	218
2	216	219
2	217	220
2	217	221
3	212	213	222
3	214	222	223
3	218	208	224
3	219	209	225
3	220	210	226
3	221	211	227
1	228
1	229
1	230
2	228	231
2	230	232
2	229	233
2	231	234
2	232	235
2	233	236
2	233	237
3	228	229	238
3	230	238	239
3	234	224	240
3	235	225	241
3	236	226	242
3	237	227	243
1	244
1	245
1	246
2	244	247
2	246	248
2	245	249
2	247	250
2	248	251
2	249	252
2	249	253
3	244	245	254
3	246	254	255
3	250	240	256
3	251	241	257
3	252	242	258
3	253	243	259
1	260
1	261
1	262
2	260	263
2	262	264
2	261	265
2	263	266
2	264	267
2	265	268
2	265	269
3	260	261	270
3	262	270	271
3	266	256	272
3	267	257	273
3	268	258	274
3	269	259	275
1	276
1	277
1	278
2	276	279
2	278	280
2	277	281
2	279	282
2	280	283
2	281	284
2	281	285
3	276	277	286
3	278	286	287
3	282	272	288
3	283	273	289
3	284	274	290
3	285	275	291
1	292
1	293
1	294
2	292	295
2	294	296
2	293	297
2	295	298
2	296	299
2	297	300
2	297	301
3	292	293	302
3	294	302	303
3	298	288	304
3	299	289	305
3	300	290	306
3	301	291	307
1	308
1	309
1	310
2	308	311
2	310	312
2	309	313
2	311	314
2	312	315
2	313	316
2	313	317
3	308	309	318
3	310	318	319
3	314	304	320
3	315	305	321
3	316	306	322
3	317	307	323
1	324
1	325
1	326
2	324	327
2	326	328
2	325	329
2	327	330
2	328	331
2	329	332
2	329	333
3	324	325	334
3	326	334	335
3	330	320	336
3	331	321	337
3	332	322	338
3	333	323	339
1	340
1	341
1	342
2	340	343
2	342	344
2	341	345
2	343	346
2	344	347
2	345	348
2	345	349
3	340	341	350
3	342	350	351
3	346	336	352
3	347	337	353
3	348	338	354
3	349	339	355
1	356
1	357
1	358
2	356	359
2	358	360
2	357	361
2	359	362
2	360	363
2	361	364
2	361	365
3	356	357	366
3	358	366	367
3	362	352	368
3	363	353	369
3	364	354	370
3	365	355	371
1	372
1	373
1	374
2	372	375
2	374	376
2	373	377
2	375	378
2	376	379
2	377	380
2	377	381
3	372	373	382
3	374	382	383
3	378	368	384
3	379	369	385
3	380	370	386
3	381	371	387
1	388
1	389
1	390
2	388	391
2	390	392
2	389	393
2	391	394
2	392	395
2	393	396
2	393	397
3	388	389	398
3	390	398	399
3	394	384	400
3	395	385	401
3	396	386	402
3	397	387	403
1	404
1	405
1	406
2	404	407
2	406	408
2	405	409
2	407	410
2	408	411
2	409	412
2	409	413
3	404	405	414
3	406	414	415
3	410	400	416
3	411	401	417
3	412	402	418
3	413	403	419
1	420
1	421
1	422
2	420	423
2	422	424
2	421	425
2	423	426
2	424	427
2	425	428
2	425	429
3	420	421	430
3	422	430	431
3	426	416	432
3	427	417	433
3	428	418	434
3	429	419	435

2
 1.0 1.0

2
 1.0 1.0

2
 1.0 1.0

2
 1.0 0.0

2
 0.30000000000000004 0.7

2
 0.0 1.0

2
 1.0 0.0

4
 1.0 0.0
 0.0 1.0

6
 1.0 0.0 0.0
 0.0 0.8 0.19999999999999996

4
 1.0 0.0
 0.0 1.0

4
 1.0 0.0
 0.0 1.0

6
 1.0 0.0
 0.0 1.0
 1.0 0.0

4
 1.0 0.0
 0.0 1.0

4
 1.0 0.0
 0.0 1.0

8
 1.0 0.0
 0.0 1.0
 0.0 1.0
 0.0 0.0

8
 0.0 0.0
 0.0 1.0
 0.0 1.0
 0.0 0.0

8
 1.0 0.0
 0.0 1.0
 0.0 1.0
 0.0 1.0

8
 1.0 0.0
 0.0 1.0
 0.0 1.0
 0.0 1.0

8
 1.0 0.0
 0.0 1.0
 1.0 0.0
 1.0 0.0

8
 1.0 0.0
 0.0 1.0
 0.0 1.0
 0.0 1.0

2
 1.0 1.0

2
 1.0 1.0

2
 1.0 1.0

4
 1.0 0.0
 0.0 1.0

6
 1.0 0.0 0.0
 0.0 0.8 0.19999999999999996

4
 1.0 0.0
 0.0 1.0

4
 1.0 0.0
 0.0 1.0

6
 1.0 0.0
 0.0 1.0
 1.0 0.0

4
 1.0 0.0
 0.0 1.0

4
 1.0 0.0
 0.0 1.0

8
 1.0 0.0
 0.0 1.0
 0.0 1.0
 0.0 0.0

8
 0.0 0.0
 0.0 1.0
 0.0 1.0
 0.0 0.0

8
 1.0 0.0
 0.0 1.0
 0.0 1.0
 0.0 1.0

8
 1.0 0.0
 0.0 1.0
 0.0 1.0
 0.0 1.0

8
 1.0 0.0
 0.0 1.0
 1.0 0.0
 1.0 0.0

8
 1.0 0.0
 0.0 1.0
 0.0 1.0
 0.0 1.0

2
 1.0 1.0

2
 1.0 1.0

2
 1.0 1.0

4
 1.0 0.0
 0.0 1.0

6
 1.0 0.0 0.0
 0.0 0.8 0.19999999999999996

4
 1.0 0.0
 0.0 1.0

4
 1.0 0.0
 0.0 1.0

6
 1.0 0.0
 0.0 1.0
 1.0 0.0

4
 1.0 0.0
 0.0 1.0

4
 1.0 0.0
 0.0 1.0

8
 1.0 0.0
 0.0 1.0
 0.0 1.0
 0.0 0.0

8
 0.0 0.0
 0.0 1.0
 0.0 1.0
 0.0 0.0

8
 1.0 0.0
 0.0 1.0
 0.0 1.0
 0.0 1.0

8
 1.0 0.0
 0.0 1.0
 0.0 1.0
 0.0 1.0

8
 1.0 0.0
 0.0 1.0
 1.0 0.0
 1.0 0.0

8
 1.0 0.0
 0.0 1.0
 0.0 1.0
 0.0 1.0

2
 1.0 1.0

2
 1.0 1.0

2
 1.0 1.0

4
 1.0 0.0
 0.0 1.0

6
 1.0 0.0 0.0
 0.0 0.8 0.19999999999999996

4
 1.0 0.0
 0.0 1.0

4
 1.0 0.0
 0.0 1.0

6
 1.0 0.0
 0.0 1.0
 1.0 0.0

4
 1.0 0.0
 0.0 1.0

4
 1.0 0.0
 0.0 1.0

8
 1.0 0.0
 0.0 1.0
 0.0 1.0
 0.0 0.0

8
 0.0 0.0
 0.0 1.0
 0.0 1.0
 0.0 0.0

8
 1.0 0.0
 0.0 1.0
 0.0 1.0
 0.0 1.0

8
 1.0 0.0
 0.0 1.0
 0.0 1.0
 0.0 1.0

8
 1.0 0.0
 0.0 1.0
 1.0 0.0
 1.0 0.0

8
 1.0 0.0
 0.0 1.0
 0.0 1.0
 0.0 1.0

2
 1.0 1.0

2
 1.0 1.0

2
 1.0 1.0

4
 1.0 0.0
 0.0 1.0

6
 1.0 0.0 0.0
 0.0 0.8 0.19999999999999996

4
 1.0 0.0
 0.0 1.0

4
 1.0 0.0
 0.0 1.0

6
 1.0 0.0
 0.0 1.0
 1.0 0.0

4
 1.0 0.0
 0.0 1.0

4
 1.0 0.0
 0.0 1.0

8
 1.0 0.0
 0.0 1.0
 0.0 1.0
 0.0 0.0

8
 0.0 0.0
 0.0 1.0
 0.0 1.0
 0.0 0.0

8
 1.0 0.0
 0.0 1.0
 0.0 1.0
 0.0 1.0

8
 1.0 0.0
 0.0 1.0
 0.0 1.0
 0.0 1.0

8
 1.0 0.0
 0.0 1.0
 1.0 0.0
 1.0 0.0

8
 1.0 0.0
 0.0 1.0
 0.0 1.0
 0.0 1.0

2
 1.0 1.0

2
 1.0 1.0

2
 1.0 1.0

4
 1.0 0.0
 0.0 1.0

6
 1.0 0.0 0.0
 0.0 0.8 0.19999999999999996

4
 1.0 0.0
 0.0 1.0

4
 1.0 0.0
 0.0 1.0

6
 1.0 0.0
 0.0 1.0
 1.0 0.0

4
 1.0 0.0
 0.0 1.0

4
 1.0 0.0
 0.0 1.0

8
 1.0 0.0
 0.0 1.0
 0.0 1.0
 0.0 0.0

8
 0.0 0.0
 0.0 1.0
 0.0 1.0
 0.0 0.0

8
 1.0 0.0
 0.0 1.0
 0.0 1.0
 0.0 1.0

8
 1.0 0.0
 0.0 1.0
 0.0 1.0
 0.0 1.0

8
 1.0 0.0
 0.0 1.0
 1.0 0.0
 1.0 0.0

8
 1.0 0.0
 0.0 1.0
 0.0 1.0
 0.0 1.0

2
 1.0 1.0

2
 1.0 1.0

2
 1.0 1.0

4
 1.0 0.0
 0.0 1.0

6
 1.0 0.0 0.0
 0.0 0.8 0.19999999999999996

4
 1.0 0.0
 0.0 1.0

4
 1.0 0.0
 0.0 1.0

6
 1.0 0.0
 0.0 1.0
 1.0 0.0

4
 1.0 0.0
 0.0 1.0

4
 1.0 0.0
 0.0 1.0

8
 1.0 0.0
 0.0 1.0
 0.0 1.0
 0.0 0.0

8
 0.0 0.0
 0.0 1.0
 0.0 1.0
 0.0 0.0

8
 1.0 0.0
 0.0 1.0
 0.0 1.0
 0.0 1.0

8
 1.0 0.0
 0.0 1.0
 0.0 1.0
 0.0 1.0

8
 1.0 0.0
 0.0 1.0
 1.0 0.0
 1.0 0.0

8
 1.0 0.0
 0.0 1.0
 0.0 1.0
 0.0 1.0

2
 1.0 1.0

2
 1.0 1.0

2
 1.0 1.0

4
 1.0 0.0
 0.0 1.0

6
 1.0 0.0 0.0
 0.0 0.8 0.19999999999999996

4
 1.0 0.0
 0.0 1.0

4
 1.0 0.0
 0.0 1.0

6
 1.0 0.0
 0.0 1.0
 1.0 0.0

4
 1.0 0.0
 0.0 1.0

4
 1.0 0.0
 0.0 1.0

8
 1.0 0.0
 0.0 1.0
 0.0 1.0
 0.0 0.0

8
 0.0 0.0
 0.0 1.0
 0.0 1.0
 0.0 0.0

8
 1.0 0.0
 0.0 1.0
 0.0 1.0
 0.0 1.0

8
 1.0 0.0
 0.0 1.0
 0.0 1.0
 0.0 1.0

8
 1.0 0.0
 0.0 1.0
 1.0 0.0
 1.0 0.0

8
 1.0 0.0
 0.0 1.0
 0.0 1.0
 0.0 1.0

2
 1.0 1.0

2
 1.0 1.0

2
 1.0 1.0

4
 1.0 0.0
 0.0 1.0

6
 1.0 0.0 0.0
 0.0 0.8 0.19999999999999996

4
 1.0 0.0
 0.0 1.0

4
 1.0 0.0
 0.0 1.0

6
 1.0 0.0
 0.0 1.0
 1.0 0.0

4
 1.0 0.0
 0.0 1.0

4
 1.0 0.0
 0.0 1.0

8
 1.0 0.0
 0.0 1.0
 0.0 1.0
 0.0 0.0

8
 0.0 0.0
 0.0 1.0
 0.0 1.0
 0.0 0.0

8
 1.0 0.0
 0.0 1.0
 0.0 1.0
 0.0 1.0

8
 1.0 0.0
 0.0 1.0
 0.0 1.0
 0.0 1.0

8
 1.0 0.0
 0.0 1.0
 1.0 0.0
 1.0 0.0

8
 1.0 0.0
 0.0 1.0
 0.0 1.0
 0.0 1.0

2
 1.0 1.0

2
 1.0 1.0

2
 1.0 1.0

4
 1.0 0.0
 0.0 1.0

6
 1.0 0.0 0.0
 0.0 0.8 0.19999999999999996

4
 1.0 0.0
 0.0 1.0

4
 1.0 0.0
 0.0 1.0

6
 1.0 0.0
 0.0 1.0
 1.0 0.0

4
 1.0 0.0
 0.0 1.0

4
 1.0 0.0
 0.0 1.0

8
 1.0 0.0
 0.0 1.0
 0.0 1.0
 0.0 0.0

8
 0.0 0.0
 0.0 1.0
 0.0 1.0
 0.0 0.0

8
 1.0 0.0
 0.0 1.0
 0.0 1.0
 0.0 1.0

8
 1.0 0.0
 0.0 1.0
 0.0 1.0
 0.0 1.0

8
 1.0 0.0
 0.0 1.0
 1.0 0.0
 1.0 0.0

8
 1.0 0.0
 0.0 1.0
 0.0 1.0
 0.0 1.0

2
 1.0 1.0

2
 1.0 1.0

2
 1.0 1.0

4
 1.0 0.0
 0.0 1.0

6
 1.0 0.0 0.0
 0.0 0.8 0.19999999999999996

4
 1.0 0.0
 0.0 1.0

4
 1.0 0.0
 0.0 1.0

6
 1.0 0.0
 0.0 1.0
 1.0 0.0

4
 1.0 0.0
 0.0 1.0

4
 1.0 0.0
 0.0 1.0

8
 1.0 0.0
 0.0 1.0
 0.0 1.0
 0.0 0.0

8
 0.0 0.0
 0.0 1.0
 0.0 1.0
 0.0 0.0

8
 1.0 0.0
 0.0 1.0
 0.0 1.0
 0.0 1.0

8
 1.0 0.0
 0.0 1.0
 0.0 1.0
 0.0 1.0

8
 1.0 0.0
 0.0 1.0
 1.0 0.0
 1.0 0.0

8
 1.0 0.0
 0.0 1.0
 0.0 1.0
 0.0 1.0

2
 1.0 1.0

2
 1.0 1.0

2
 1.0 1.0

4
 1.0 0.0
 0.0 1.0

6
 1.0 0.0 0.0
 0.0 0.8 0.19999999999999996

4
 1.0 0.0
 0.0 1.0

4
 1.0 0.0
 0.0 1.0

6
 1.0 0.0
 0.0 1.0
 1.0 0.0

4
 1.0 0.0
 0.0 1.0

4
 1.0 0.0
 0.0 1.0

8
 1.0 0.0
 0.0 1.0
 0.0 1.0
 0.0 0.0

8
 0.0 0.0
 0.0 1.0
 0.0 1.0
 0.0 0.0

8
 1.0 0.0
 0.0 1.0
 0.0 1.0
 0.0 1.0

8
 1.0 0.0
 0.0 1.0
 0.0 1.0
 0.0 1.0

8
 1.0 0.0
 0.0 1.0
 1.0 0.0
 1.0 0.0

8
 1.0 0.0
 0.0 1.0
 0.0 1.0
 0.0 1.0

2
 1.0 1.0

2
 1.0 1.0

2
 1.0 1.0

4
 1.0 0.0
 0.0 1.0

6
 1.0 0.0 0.0
 0.0 0.8 0.19999999999999996

4
 1.0 0.0
 0.0 1.0

4
 1.0 0.0
 0.0 1.0

6
 1.0 0.0
 0.0 1.0
 1.0 0.0

4
 1.0 0.0
 0.0 1.0

4
 1.0 0.0
 0.0 1.0

8
 1.0 0.0
 0.0 1.0
 0.0 1.0
 0.0 0.0

8
 0.0 0.0
 0.0 1.0
 0.0 1.0
 0.0 0.0

8
 1.0 0.0
 0.0 1.0
 0.0 1.0
 0.0 1.0

8
 1.0 0.0
 0.0 1.0
 0.0 1.0
 0.0 1.0

8
 1.0 0.0
 0.0 1.0
 1.0 0.0
 1.0 0.0

8
 1.0 0.0
 0.0 1.0
 0.0 1.0
 0.0 1.0

2
 1.0 1.0

2
 1.0 1.0

2
 1.0 1.0

4
 1.0 0.0
 0.0 1.0

6
 1.0 0.0 0.0
 0.0 0.8 0.19999999999999996

4
 1.0 0.0
 0.0 1.0

4
 1.0 0.0
 0.0 1.0

6
 1.0 0.0
 0.0 1.0
 1.0 0.0

4
 1.0 0.0
 0.0 1.0

4
 1.0 0.0
 0.0 1.0

8
 1.0 0.0
 0.0 1.0
 0.0 1.0
 0.0 0.0

8
 0.0 0.0
 0.0 1.0
 0.0 1.0
 0.0 0.0

8
 1.0 0.0
 0.0 1.0
 0.0 1.0
 0.0 1.0

8
 1.0 0.0
 0.0 1.0
 0.0 1.0
 0.0 1.0

8
 1.0 0.0
 0.0 1.0
 1.0 0.0
 1.0 0.0

8
 1.0 0.0
 0.0 1.0
 0.0 1.0
 0.0 1.0

2
 1.0 1.0

2
 1.0 1.0

2
 1.0 1.0

4
 1.0 0.0
 0.0 1.0

6
 1.0 0.0 0.0
 0.0 0.8 0.19999999999999996

4
 1.0 0.0
 0.0 1.0

4
 1.0 0.0
 0.0 1.0

6
 1.0 0.0
 0.0 1.0
 1.0 0.0

4
 1.0 0.0
 0.0 1.0

4
 1.0 0.0
 0.0 1.0

8
 1.0 0.0
 0.0 1.0
 0.0 1.0
 0.0 0.0

8
 0.0 0.0
 0.0 1.0
 0.0 1.0
 0.0 0.0

8
 1.0 0.0
 0.0 1.0
 0.0 1.0
 0.0 1.0

8
 1.0 0.0
 0.0 1.0
 0.0 1.0
 0.0 1.0

8
 1.0 0.0
 0.0 1.0
 1.0 0.0
 1.0 0.0

8
 1.0 0.0
 0.0 1.0
 0.0 1.0
 0.0 1.0

2
 1.0 1.0

2
 1.0 1.0

2
 1.0 1.0

4
 1.0 0.0
 0.0 1.0

6
 1.0 0.0 0.0
 0.0 0.8 0.19999999999999996

4
 1.0 0.0
 0.0 1.0

4
 1.0 0.0
 0.0 1.0

6
 1.0 0.0
 0.0 1.0
 1.0 0.0

4
 1.0 0.0
 0.0 1.0

4
 1.0 0.0
 0.0 1.0

8
 1.0 0.0
 0.0 1.0
 0.0 1.0
 0.0 0.0

8
 0.0 0.0
 0.0 1.0
 0.0 1.0
 0.0 0.0

8
 1.0 0.0
 0.0 1.0
 0.0 1.0
 0.0 1.0

8
 1.0 0.0
 0.0 1.0
 0.0 1.0
 0.0 1.0

8
 1.0 0.0
 0.0 1.0
 1.0 0.0
 1.0 0.0

8
 1.0 0.0
 0.0 1.0
 0.0 1.0
 0.0 1.0

2
 1.0 1.0

2
 1.0 1.0

2
 1.0 1.0

4
 1.0 0.0
 0.0 1.0

6
 1.0 0.0 0.0
 0.0 0.8 0.19999999999999996

4
 1.0 0.0
 0.0 1.0

4
 1.0 0.0
 0.0 1.0

6
 1.0 0.0
 0.0 1.0
 1.0 0.0

4
 1.0 0.0
 0.0 1.0

4
 1.0 0.0
 0.0 1.0

8
 1.0 0.0
 0.0 1.0
 0.0 1.0
 0.0 0.0

8
 0.0 0.0
 0.0 1.0
 0.0 1.0
 0.0 0.0

8
 1.0 0.0
 0.0 1.0
 0.0 1.0
 0.0 1.0

8
 1.0 0.0
 0.0 1.0
 0.0 1.0
 0.0 1.0

8
 1.0 0.0
 0.0 1.0
 1.0 0.0
 1.0 0.0

8
 1.0 0.0
 0.0 1.0
 0.0 1.0
 0.0 1.0

2
 1.0 1.0

2
 1.0 1.0

2
 1.0 1.0

4
 1.0 0.0
 0.0 1.0

6
 1.0 0.0 0.0
 0.0 0.8 0.19999999999999996

4
 1.0 0.0
 0.0 1.0

4
 1.0 0.0
 0.0 1.0

6
 1.0 0.0
 0.0 1.0
 1.0 0.0

4
 1.0 0.0
 0.0 1.0

4
 1.0 0.0
 0.0 1.0

8
 1.0 0.0
 0.0 1.0
 0.0 1.0
 0.0 0.0

8
 0.0 0.0
 0.0 1.0
 0.0 1.0
 0.0 0.0

8
 1.0 0.0
 0.0 1.0
 0.0 1.0
 0.0 1.0

8
 1.0 0.0
 0.0 1.0
 0.0 1.0
 0.0 1.0

8
 1.0 0.0
 0.0 1.0
 1.0 0.0
 1.0 0.0

8
 1.0 0.0
 0.0 1.0
 0.0 1.0
 0.0 1.0

2
 1.0 1.0

2
 1.0 1.0

2
 1.0 1.0

4
 1.0 0.0
 0.0 1.0

6
 1.0 0.0 0.0
 0.0 0.8 0.19999999999999996

4
 1.0 0.0
 0.0 1.0

4
 1.0 0.0
 0.0 1.0

6
 1.0 0.0
 0.0 1.0
 1.0 0.0

4
 1.0 0.0
 0.0 1.0

4
 1.0 0.0
 0.0 1.0

8
 1.0 0.0
 0.0 1.0
 0.0 1.0
 0.0 0.0

8
 0.0 0.0
 0.0 1.0
 0.0 1.0
 0.0 0.0

8
 1.0 0.0
 0.0 1.0
 0.0 1.0
 0.0 1.0

8
 1.0 0.0
 0.0 1.0
 0.0 1.0
 0.0 1.0

8
 1.0 0.0
 0.0 1.0
 1.0 0.0
 1.0 0.0

8
 1.0 0.0
 0.0 1.0
 0.0 1.0
 0.0 1.0

2
 1.0 1.0

2
 1.0 1.0

2
 1.0 1.0

4
 1.0 0.0
 0.0 1.0

6
 1.0 0.0 0.0
 0.0 0.8 0.19999999999999996

4
 1.0 0.0
 0.0 1.0

4
 1.0 0.0
 0.0 1.0

6
 1.0 0.0
 0.0 1.0
 1.0 0.0

4
 1.0 0.0
 0.0 1.0

4
 1.0 0.0
 0.0 1.0

8
 1.0 0.0
 0.0 1.0
 0.0 1.0
 0.0 0.0

8
 0.0 0.0
 0.0 1.0
 0.0 1.0
 0.0 0.0

8
 1.0 0.0
 0.0 1.0
 0.0 1.0
 0.0 1.0

8
 1.0 0.0
 0.0 1.0
 0.0 1.0
 0.0 1.0

8
 1.0 0.0
 0.0 1.0
 1.0 0.0
 1.0 0.0

8
 1.0 0.0
 0.0 1.0
 0.0 1.0
 0.0 1.0

2
 1.0 1.0

2
 1.0 1.0

2
 1.0 1.0

4
 1.0 0.0
 0.0 1.0

6
 1.0 0.0 0.0
 0.0 0.8 0.19999999999999996

4
 1.0 0.0
 0.0 1.0

4
 1.0 0.0
 0.0 1.0

6
 1.0 0.0
 0.0 1.0
 1.0 0.0

4
 1.0 0.0
 0.0 1.0

4
 1.0 0.0
 0.0 1.0

8
 1.0 0.0
 0.0 1.0
 0.0 1.0
 0.0 0.0

8
 0.0 0.0
 0.0 1.0
 0.0 1.0
 0.0 0.0

8
 1.0 0.0
 0.0 1.0
 0.0 1.0
 0.0 1.0

8
 1.0 0.0
 0.0 1.0
 0.0 1.0
 0.0 1.0

8
 1.0 0.0
 0.0 1.0
 1.0 0.0
 1.0 0.0

8
 1.0 0.0
 0.0 1.0
 0.0 1.0
 0.0 1.0

2
 1.0 1.0

2
 1.0 1.0

2
 1.0 1.0

4
 1.0 0.0
 0.0 1.0

6
 1.0 0.0 0.0
 0.0 0.8 0.19999999999999996

4
 1.0 0.0
 0.0 1.0

4
 1.0 0.0
 0.0 1.0

6
 1.0 0.0
 0.0 1.0
 1.0 0.0

4
 1.0 0.0
 0.0 1.0

4
 1.0 0.0
 0.0 1.0

8
 1.0 0.0
 0.0 1.0
 0.0 1.0
 0.0 0.0

8
 0.0 0.0
 0.0 1.0
 0.0 1.0
 0.0 0.0

8
 1.0 0.0
 0.0 1.0
 0.0 1.0
 0.0 1.0

8
 1.0 0.0
 0.0 1.0
 0.0 1.0
 0.0 1.0

8
 1.0 0.0
 0.0 1.0
 1.0 0.0
 1.0 0.0

8
 1.0 0.0
 0.0 1.0
 0.0 1.0
 0.0 1.0

2
 1.0 1.0

2
 1.0 1.0

2
 1.0 1.0

4
 1.0 0.0
 0.0 1.0

6
 1.0 0.0 0.0
 0.0 0.8 0.19999999999999996

4
 1.0 0.0
 0.0 1.0

4
 1.0 0.0
 0.0 1.0

6
 1.0 0.0
 0.0 1.0
 1.0 0.0

4
 1.0 0.0
 0.0 1.0

4
 1.0 0.0
 0.0 1.0

8
 1.0 0.0
 0.0 1.0
 0.0 1.0
 0.0 0.0

8
 0.0 0.0
 0.0 1.0
 0.0 1.0
 0.0 0.0

8
 1.0 0.0
 0.0 1.0
 0.0 1.0
 0.0 1.0

8
 1.0 0.0
 0.0 1.0
 0.0 1.0
 0.0 1.0

8
 1.0 0.0
 0.0 1.0
 1.0 0.0
 1.0 0.0

8
 1.0 0.0
 0.0 1.0
 0.0 1.0
 0.0 1.0

2
 1.0 1.0

2
 1.0 1.0

2
 1.0 1.0

4
 1.0 0.0
 0.0 1.0

6
 1.0 0.0 0.0
 0.0 0.8 0.19999999999999996

4
 1.0 0.0
 0.0 1.0

4
 1.0 0.0
 0.0 1.0

6
 1.0 0.0
 0.0 1.0
 1.0 0.0

4
 1.0 0.0
 0.0 1.0

4
 1.0 0.0
 0.0 1.0

8
 1.0 0.0
 0.0 1.0
 0.0 1.0
 0.0 0.0

8
 0.0 0.0
 0.0 1.0
 0.0 1.0
 0.0 0.0

8
 1.0 0.0
 0.0 1.0
 0.0 1.0
 0.0 1.0

8
 1.0 0.0
 0.0 1.0
 0.0 1.0
 0.0 1.0

8
 1.0 0.0
 0.0 1.0
 1.0 0.0
 1.0 0.0

8
 1.0 0.0
 0.0 1.0
 0.0 1.0
 0.0 1.0

2
 1.0 1.0

2
 1.0 1.0

2
 1.0 1.0

4
 1.0 0.0
 0.0 1.0

6
 1.0 0.0 0.0
 0.0 0.8 0.19999999999999996

4
 1.0 0.0
 0.0 1.0

4
 1.0 0.0
 0.0 1.0

6
 1.0 0.0
 0.0 1.0
 1.0 0.0

4
 1.0 0.0
 0.0 1.0

4
 1.0 0.0
 0.0 1.0

8
 1.0 0.0
 0.0 1.0
 0.0 1.0
 0.0 0.0

8
 0.0 0.0
 0.0 1.0
 0.0 1.0
 0.0 0.0

8
 1.0 0.0
 0.0 1.0
 0.0 1.0
 0.0 1.0

8
 1.0 0.0
 0.0 1.0
 0.0 1.0
 0.0 1.0

8
 1.0 0.0
 0.0 1.0
 1.0 0.0
 1.0 0.0

8
 1.0 0.0
 0.0 1.0
 0.0 1.0
 0.0 1.0

2
 1.0 1.0

2
 1.0 1.0

2
 1.0 1.0

4
 1.0 0.0
 0.0 1.0

6
 1.0 0.0 0.0
 0.0 0.8 0.19999999999999996

4
 1.0 0.0
 0.0 1.0

4
 1.0 0.0
 0.0 1.0

6
 1.0 0.0
 0.0 1.0
 1.0 0.0

4
 1.0 0.0
 0.0 1.0

4
 1.0 0.0
 0.0 1.0

8
 1.0 0.0
 0.0 1.0
 0.0 1.0
 0.0 0.0

8
 0.0 0.0
 0.0 1.0
 0.0 1.0
 0.0 0.0

8
 1.0 0.0
 0.0 1.0
 0.0 1.0
 0.0 1.0

8
 1.0 0.0
 0.0 1.0
 0.0 1.0
 0.0 1.0

8
 1.0 0.0
 0.0 1.0
 1.0 0.0
 1.0 0.0

8
 1.0 0.0
 0.0 1.0
 0.0 1.0
 0.0 1.0

2
 1.0 1.0

2
 1.0 1.0

2
 1.0 1.0

4
 1.0 0.0
 0.0 1.0

6
 1.0 0.0 0.0
 0.0 0.8 0.19999999999999996

4
 1.0 0.0
 0.0 1.0

4
 1.0 0.0
 0.0 1.0

6
 1.0 0.0
 0.0 1.0
 1.0 0.0

4
 1.0 0.0
 0.0 1.0

4
 1.0 0.0
 0.0 1.0

8
 1.0 0.0
 0.0 1.0
 0.0 1.0
 0.0 0.0

8
 0.0 0.0
 0.0 1.0
 0.0 1.0
 0.0 0.0

8
 0.0 0.0
 0.0 1.0
 0.0 1.0
 0.0 1.0

8
 1.0 0.0
 0.0 1.0
 0.0 1.0
 0.0 1.0

8
 0.0 0.0
 0.0 1.0
 0.0 0.0
 0.0 0.0

8
 0.0 0.0
 0.0 1.0
 0.0 1.0
 0.0 1.0

